198 22153
1 2 7 8 9 10 11 12 13 69 71 85 86 100 99 87 84 75 81 94 93 117 145 151 163 164 165 166 182 183 181 177 176 175 180 178 179 194 195 196 197 198 174 173 168 167 63 49 48 29 15 40 5 6 3 4 41 58 57 42 43 59 60 68 56 44 55 67 73 72 70 66 74 83 82 88 98 97 89 90 96 95 101 102 103 104 115 122 139 154 155 156 157 158 159 160 161 153 162 152 149 148 147 142 146 143 150 144 137 172 190 191 192 193 186 187 185 184 188 189 171 128 129 170 127 126 169 108 109 110 111 107 106 113 116 121 123 138 140 141 135 134 132 133 136 130 131 125 124 120 119 118 112 114 105 92 80 79 91 78 76 77 64 50 47 39 35 27 26 25 24 21 20 19 18 23 22 28 34 33 30 32 36 45 54 61 53 62 65 51 52 46 37 31 38 14 17 16 
